Instance: E051-05e.dat
Class:  5
   50 --- number of customers (no depot)
   12 --- number of vehicles
  157 --- number of items
Capacity - height - width of vehicles
   160     40     20
Node - x - y - demand
    0    30.0    40.0     0.0
    1    37.0    52.0     7.0
    2    49.0    49.0    30.0
    3    52.0    64.0    16.0
    4    20.0    26.0     9.0
    5    40.0    30.0    21.0
    6    21.0    47.0    15.0
    7    17.0    63.0    19.0
    8    31.0    62.0    23.0
    9    52.0    33.0    11.0
   10    51.0    21.0     5.0
   11    42.0    41.0    19.0
   12    31.0    32.0    29.0
   13     5.0    25.0    23.0
   14    12.0    42.0    21.0
   15    36.0    16.0    10.0
   16    52.0    41.0    15.0
   17    27.0    23.0     3.0
   18    17.0    33.0    41.0
   19    13.0    13.0     9.0
   20    57.0    58.0    28.0
   21    62.0    42.0     8.0
   22    42.0    57.0     8.0
   23    16.0    57.0    16.0
   24     8.0    52.0    10.0
   25     7.0    38.0    28.0
   26    27.0    68.0     7.0
   27    30.0    48.0    15.0
   28    43.0    67.0    14.0
   29    58.0    48.0     6.0
   30    58.0    27.0    19.0
   31    37.0    69.0    11.0
   32    38.0    46.0    12.0
   33    46.0    10.0    23.0
   34    61.0    33.0    26.0
   35    62.0    63.0    17.0
   36    63.0    69.0     6.0
   37    32.0    22.0     9.0
   38    45.0    35.0    15.0
   39    59.0    15.0    14.0
   40     5.0     6.0     7.0
   41    10.0    17.0    27.0
   42    21.0    10.0    13.0
   43     5.0    64.0    11.0
   44    30.0    15.0    16.0
   45    39.0    10.0    10.0
   46    32.0    39.0     5.0
   47    25.0    32.0    25.0
   48    25.0    55.0    17.0
   49    48.0    28.0    18.0
   50    56.0    37.0    10.0
Node - number of items - h - w for each item
    0   0
    1   2    5   10    8    4
    2   1   10    5
    3   2   11    3    6    3
    4   3   11    5   12    3    6    3
    5   3    9    4    8    3   21    2
    6   3    7    6    8    3    5    2
    7   5   11    5    5    5    9    4   12    3    9    2
    8   1    6    9
    9   5    7    6    8    5   20    4    9    4   23    3
   10   1   22    2
   11   4   11    3   11    3    9    3    4    3
   12   4    6    5   16    4   23    3    8    3
   13   4    6    9    6    5   23    3    5    2
   14   3    6    5    9    3    4    2
   15   2    7    5   19    3
   16   5    6    9    9    4    7    3   10    2    6    2
   17   4    5    5   11    4   22    3   12    3
   18   1    7    7
   19   4   10    6   10    6    6    4   15    3
   20   2   10    4   20    2
   21   4    6    9   12    4   24    3   10    3
   22   3   12    4    7    3    7    2
   23   3    5   10    4    7    5    4
   24   3   10    5    8    2    7    2
   25   3    6    9    5    4    5    2
   26   4    5    5   14    4    9    4   12    3
   27   5    6   11    7    5    6    5    8    4    6    4
   28   1    7    6
   29   4    8   11    5    8    5    5    6    3
   30   2    4    5    7    2
   31   5   10    4    5    4   16    3   15    3   19    2
   32   3    7    9   11    4    6    2
   33   4    5    5   18    4    9    4    6    4
   34   3    7   11    6    6   19    3
   35   4    7    9    5    6   10    2    7    2
   36   5    9    5   22    3   11    3    7    3   11    2
   37   3    8   12   11    3    6    2
   38   3    5   11    6    5   13    3
   39   4   10    6   11    4   10    4   23    3
   40   3    4    5   12    4    9    2
   41   3    6    5    5    4   18    2
   42   4    4   10   11    4    4    3    7    2
   43   4    5   11    5    4    5    3   12    2
   44   2   24    4    8    4
   45   1    4   12
   46   3   17    4   10    2    4    2
   47   1    5    2
   48   3    7    5   20    4    8    3
   49   5    7    6    7    4    7    3    7    3    5    2
   50   3    5    5   10    3    6    3
